; benchmark generated from python API
(set-info :status unknown)
(declare-fun S_4 () Real)
(declare-fun S_3 () Real)
(declare-fun C () Real)
(declare-fun S_1 () Real)
(declare-fun S_0 () Real)
(declare-fun A_0 () Real)
(declare-fun L_0 () Real)
(declare-fun L0 () Real)
(declare-fun L_1 () Real)
(declare-fun A_3 () Real)
(declare-fun S_2 () Real)
(declare-fun B () Real)
(declare-fun A_1 () Real)
(declare-fun L_2 () Real)
(declare-fun L_3 () Real)
(declare-fun A_2 () Real)
(declare-fun A_4 () Real)
(assert
 (let (($x37 (>= L0 0.0)))
 (let (($x538 (>= C 5.0)))
 (let (($x2640 (>= S_4 (+ A_3 (* (- 1.0) L_1)))))
 (let (($x54 (= L_1 L_0)))
 (let (($x9515 (or $x54 (<= S_4 (+ A_1 (* (- 1.0) L_1) (* (- 1.0) B) (* 3.0 C))))))
 (let (($x6629 (<= A_3 (+ A_1 (* (- 1.0) B) (* 2.0 C)))))
 (let (($x6982 (or (>= S_4 (+ A_1 (* (- 1.0) L_1) (* (- 1.0) B) (* 2.0 C))) $x6629)))
 (let (($x810 (not (<= L_2 L_1))))
 (let (($x566 (not (= L_2 L_3))))
 (let (($x6964 (or $x54 $x566 $x810 (<= (+ A_3 (* (- 1.0) A_1) (* (- 2.0) C)) 0.0))))
 (let ((?x478 (* (- 1.0) L_0)))
 (let ((?x744 (+ A_0 ?x478)))
 (let ((?x1037 (* (- 2.0) C)))
 (let ((?x472 (* (- 1.0) L_2)))
 (let ((?x535 (* (- 1.0) B)))
 (let ((?x6426 (+ ?x535 ?x472 A_2 ?x1037)))
 (let (($x1281 (= L_2 L_0)))
 (let (($x1243 (not (= L_0 L_1))))
 (let (($x6497 (or $x1243 $x1281 (<= (+ A_1 ?x478 L_2 (* (- 1.0) A_2) C) 0.0))))
 (let (($x813 (not (<= L_3 L_2))))
 (let (($x64 (= L_2 L_1)))
 (let (($x9708 (or $x64 $x813 (<= (+ A_3 (* (- 1.0) A_2) (* (- 1.0) C)) 0.0))))
 (let (($x1974 (= L_3 L_0)))
 (let (($x1236 (not (= L_0 L_2))))
 (let (($x9491 (or (<= (+ A_2 ?x478 L_3 (* (- 1.0) A_3) C) 0.0) $x1236 $x1974)))
 (let (($x74 (= L_3 L_2)))
 (let (($x1599 (not (= L_1 L_2))))
 (let (($x6396 (or $x54 $x1599 (<= (+ A_2 (* (- 1.0) A_1) (* (- 1.0) C)) 0.0))))
 (let (($x7422 (or $x74 (<= (+ A_1 ?x478 L_3 (* (- 1.0) A_3) (* 2.0 C)) 0.0) (not (<= L_2 L_0)))))
 (let ((?x281 (* (- 1.0) L_3)))
 (let ((?x328 (+ A_3 ?x281)))
 (let (($x125 (>= A_4 A_3)))
 (let (($x36 (>= L_0 L0)))
 (let (($x111 (>= S_1 S_0)))
 (let (($x114 (>= S_2 S_1)))
 (let (($x117 (>= S_3 S_2)))
 (let (($x123 (>= A_2 A_1)))
 (let (($x124 (>= A_3 A_2)))
 (and (<= (+ A_2 ?x472) S_4) (<= ?x744 S_3) $x124 $x123 $x117 $x114 $x111 $x36 $x125 (>= S_4 (+ A_3 ?x281 ?x535)) (or $x64 (<= S_2 (+ A_2 ?x472 ?x535))) (or $x54 (<= S_1 (+ A_1 (* (- 1.0) L_1) ?x535))) (or $x74 (<= S_3 (+ A_3 ?x281 ?x535))) (or $x74 $x813) (>= S_3 (+ A_2 ?x472 ?x535)) (or $x74 (= ?x328 (+ A_2 ?x472 C)) $x1243 $x1281) (or $x54 (not (<= L_1 L_0))) (or $x74 (<= S_4 (+ A_3 ?x281 ?x535 C))) (or $x1243 (>= S_2 (+ A_1 ?x478 ?x535))) (or $x1243 (>= S_0 (+ ?x535 ?x478 A_1 ?x1037))) (>= S_2 (+ A_1 (* (- 1.0) L_1) ?x535)) (>= S_0 (+ ?x535 (* (- 1.0) L_1) A_1 ?x1037)) (or $x54 $x64 (= (+ A_2 ?x472) (+ A_1 (* (- 1.0) L_1) C))) (not (<= (+ A_1 (* (- 1.0) L_1)) S_3)) (>= S_3 (+ A_1 (* (- 1.0) L_1) ?x535 C)) (<= (+ ?x535 (* (- 1.0) L_1) A_1 (* (- 1.0) C)) ?x744) (or $x54 $x74 (= ?x328 (+ A_1 (* (- 1.0) L_1) (* 2.0 C)))) (>= S_1 (+ ?x535 (* (- 1.0) L_1) A_1 (* (- 1.0) C))) (or $x54 (<= S_0 (+ ?x535 (* (- 1.0) L_1) A_1 (* (- 1.0) C)))) $x7422 (>= S_3 (+ ?x535 ?x281 A_3 (* (- 1.0) C))) (>= S_2 (+ ?x535 ?x281 A_3 ?x1037)) (>= S_0 (+ ?x535 ?x281 A_3 (* (- 4.0) C))) (<= (+ ?x535 ?x281 A_3 (* (- 3.0) C)) ?x744) (or $x64 $x810) $x6396 (or $x74 (<= S_2 (+ ?x535 ?x281 A_3 (* (- 1.0) C)))) (or $x74 (<= S_1 (+ ?x535 ?x281 A_3 ?x1037))) (or $x74 (<= S_0 (+ ?x535 ?x281 A_3 (* (- 3.0) C)))) (>= S_1 (+ ?x535 ?x281 A_3 (* (- 3.0) C))) (>= S_0 (+ ?x535 ?x472 A_2 (* (- 3.0) C))) $x9491 (or $x64 (<= S_4 (+ A_2 ?x472 ?x535 (* 2.0 C)))) (or $x64 (<= S_1 (+ ?x535 ?x472 A_2 (* (- 1.0) C)))) (or $x64 (<= S_0 ?x6426)) $x9708 $x6497 (<= S_4 (+ A_4 ?x472)) (>= S_2 (+ ?x535 ?x472 A_2 (* (- 1.0) C))) (>= S_1 ?x6426) (or $x54 (<= S_2 (+ A_1 (* (- 1.0) L_1) ?x535 C))) (or $x54 (<= S_3 (+ A_1 (* (- 1.0) L_1) ?x535 (* 2.0 C)))) (<= ?x6426 ?x744) $x6964 $x6982 (or $x2640 (not $x6629)) $x9515 (<= (+ C (* (- 1.0) S_2) S_0) 0.0) (<= (+ C (* (- 1.0) S_3) S_1) 0.0) (<= (+ (* 2.0 C) (* (- 1.0) S_3) S_0) 0.0) (<= (+ ?x1037 L_0 S_2 (* (- 1.0) A_0)) 0.0) (<= (+ (* (- 1.0) C) L_0 (* (- 1.0) A_0) S_1) 0.0) (<= (+ (* (- 3.0) C) S_2 (* (- 1.0) S_0)) 0.0) (<= (+ ?x1037 S_2 (* (- 1.0) S_1)) 0.0) (or $x2640 (<= (+ C S_2 (* (- 1.0) S_4)) 0.0)) (or $x2640 (<= (+ (* 3.0 C) S_0 (* (- 1.0) S_4)) 0.0)) (or $x2640 (<= (+ (* 2.0 C) (* (- 1.0) S_4) S_1) 0.0)) (<= (+ ?x1037 (* (- 1.0) S_2) S_3) 0.0) (<= (+ (* (- 3.0) C) L_0 S_3 (* (- 1.0) A_0)) 0.0) (<= (+ (* (- 5.0) C) (* (- 1.0) S_0) S_4) 0.0) (<= (+ (* (- 3.0) C) (* (- 1.0) S_2) S_4) 0.0) (<= S_4 (+ A_3 (* (- 1.0) L_1) C)) (<= (+ (* (- 4.0) C) L_0 S_4 (* (- 1.0) A_0)) 0.0) (<= (+ (* (- 3.0) C) S_3 (* (- 1.0) S_1)) 0.0) (<= (+ (* (- 4.0) C) S_3 (* (- 1.0) S_0)) 0.0) (<= (+ (* (- 4.0) C) S_4 (* (- 1.0) S_1)) 0.0) $x538 $x37 (<= (+ L_0 S_0 (* (- 1.0) A_0)) 0.0) (<= (+ ?x1037 (* (- 1.0) S_0) S_1) 0.0) (<= (+ ?x1037 (* (- 1.0) S_3) S_4) 0.0)))))))))))))))))))))))))))))))))))))))))
(check-sat)
